NAME          BLEND    BRUCE MURTAGHS BLENDING PROBLEM (MINIMIZE).
ROWS
 E  1
 E  2
 E  3
 E  4
 E  5
 E  6
 E  7
 E  8
 E  9
 E  10
 E  11
 E  12
 E  13
 E  14
 E  15
 E  16
 E  17
 E  18
 E  19
 E  20
 E  21
 E  22
 E  23
 E  24
 E  25
 E  26
 E  27
 E  28
 E  29
 E  30
 E  31
 E  32
 E  33
 E  34
 E  35
 E  36
 E  37
 E  38
 E  39
 E  40
 E  41
 E  42
 E  43
 L  44
 L  45
 L  46
 L  47
 L  48
 L  49
 L  50
 L  51
 L  52
 L  53
 L  54
 L  55
 L  56
 L  57
 L  58
 L  59
 L  60
 L  61
 L  62
 L  63
 L  64
 L  65
 L  66
 L  67
 L  68
 L  69
 L  70
 L  71
 L  72
 L  73
 L  74
 N  C
COLUMNS
    a1         2                -.537   3                -.131
    a1         4               -.1155   5               -.0365
    a1         6                -.143   7                -.037
    a1         40                .003   41               .0587
    a1         42                 .15   43                .302
    a1         67                  1.   C                  3.2
    a2         1               -.2931   3                -.117
    a2         4               -.0649   5               -.1233
    a2         6               -.2217   8                 -.18
    a2         39               .0042   40                .003
    a2         41               .1053   42                .185
    a2         43                .384   50             -.00862
    a2         51             -.00862   56              -.0101
    a2         57              -.0101   68                  1.
    a2         C                 2.87
    a3         2                   1.   9               -.0277
    a3         10              -.0563   11               -.199
    a3         12              -.6873   13               -.017
    a3         40              .01303   41               .0506
    a3         42                .209   43                .495
    a3         65                  1.
    a4         1                   1.   9               -.0112
    a4         10              -.0378   11              -.1502
    a4         12              -.7953   13              -.0099
    a4         40              .01303   41               .0448
    a4         42                .185   43                .721
    a4         65                  1.
    a5         9                -.175   10                -.27
    a5         11               -.028   13               -.455
    a5         21                  1.   40              .01303
    a5         41               .0506   42                .209
    a5         43                .495
    a6         9                -.271   10              -.3285
    a6         11              -.0255   13              -.2656
    a6         18                  1.   40              .01303
    a6         41               .0506   42                .209
    a6         43                .495
    a7         9               -.2836   10              -.3285
    a7         11              -.0241   13              -.2502
    a7         17                  1.   40              .01303
    a7         41               .0506   42                .209
    a7         43                .495
    a8         12                  1.   14                 -1.
    a8         39               .0327   41                .094
    a8         42                .045   43                .793
    a8         C                .0044
    a9         15                 -1.   22                  1.
    a10        16                 -1.   22                  1.
    a11        14                  1.   15                 -1.
    a12        14                  1.   16                 -1.
    a13        15                  1.   17              -.0588
    a13        19              -.8145   23              -.0091
    a13        39              -.8239   40               .0081
    a13        41              -.2112   42                .387
    a13        43                1.03   69                 1.3
    a13        C                  .07
    a14        16                  1.   18              -.0404
    a14        20              -.8564   23              -.0069
    a14        39              -.7689   40               .0063
    a14        41               -.156   42                .297
    a14        43                .792   69                  1.
    a14        C                .0378
    a15        5                   1.   21              -.3321
    a15        22              -.5875   23               -.362
    a15        39                 2.3   41              -.2049
    a15        42                .826   43               14.61
    a15        65                  1.   70                  1.
    a15        C                 .155
    a16        6                   1.   21              -.3321
    a16        22              -.5875   23               -.362
    a16        39                 2.3   41              -.2049
    a16        42                .826   43               14.61
    a16        66                  1.   70                  1.
    a16        C                 .155
    a17        4                   1.   21              -.2414
    a17        22              -.6627   23               -.293
    a17        39                 2.3   41              -.1531
    a17        42                .826   43               14.61
    a17        65                  1.   70                  1.
    a17        C                 .155
    a18        21              -.2414   22              -.6627
    a18        23               -.293   28                  1.
    a18        39                 2.3   41              -.1531
    a18        42                .826   43               14.61
    a18        70                  1.   C                 .155
    a19        5                   1.   10              -.0185
    a19        13              -.0568   24              -.0806
    a19        25              -.0658   26              -.0328
    a19        27              -.4934   28              -.2922
    a19        29              -.0096   40              -.0654
    a19        41              -.2535   42                .632
    a19        43               .6807   65                  1.
    a19        71                  1.   C                .0528
    a20        6                   1.   10              -.0185
    a20        13              -.0568   24              -.0806
    a20        25              -.0658   26              -.0328
    a20        27              -.4934   28              -.2922
    a20        29              -.0096   40              -.0654
    a20        41              -.2535   42                .632
    a20        43               .6807   66                  1.
    a20        71                  1.   C                .0528
    a21        4                   1.   10              -.0184
    a21        13              -.0564   24               -.078
    a21        25              -.0655   26              -.0303
    a21        27               -.475   28               -.305
    a21        40              -.0654   41              -.2703
    a21        42                .632   43               .6807
    a21        65                  1.   71                  1.
    a21        C                .0528
    a22        3                   1.   10              -.0184
    a22        13              -.0564   24               -.078
    a22        25              -.0655   26              -.0303
    a22        27               -.475   28               -.305
    a22        40              -.0654   41              -.2703
    a22        42                .632   43               .6807
    a22        65                  1.   71                  1.
    a22        C                .0528
    a23        13                 .76   25               .5714
    a23        30                 -1.   40               .1869
    a23        41               .2796   42               2.241
    a23        43               2.766   72                  1.
    a23        C                 .128
    a24        9               -.0571   10              -.0114
    a24        13               .6571   24               .5714
    a24        31                 -1.   40               .1724
    a24        41               .2579   42               2.067
    a24        43               2.552   72                  1.
    a24        C                 .118
    a25        9                  -1.   25                  1.
    a26        10                 -1.   24                  1.
    a27        10                 -1.   13                  1.
    a28        11                  1.   32                 -1.
    a28        44               -7.95   45                -8.7
    a28        46                 -3.   47                 14.
    a28        48                  1.   49                 -1.
    a29        23                  1.   32                 -1.
    a29        44               -8.84   45               -9.45
    a29        46                 -3.   47                 12.
    a29        48                  1.   49                 -1.
    a30        19                  1.   32                 -1.
    a30        44               -9.43   45               -9.57
    a30        46                 -3.   47                 3.5
    a30        48                .233   49               -.358
    a31        20                  1.   32                 -1.
    a31        44               -9.03   45               -9.32
    a31        46                 -3.   47                 3.5
    a31        48                .205   49               -.333
    a32        27                  1.   32                 -1.
    a32        44               -9.23   45               -9.22
    a32        46                 -3.   47                  6.
    a32        48                .381   49               -.509
    a33        30                  1.   32                 -1.
    a33        44                -9.4   45               -9.85
    a33        46                 -3.   47                 2.5
    a33        48                 .39   49                -.77
    a34        31                  1.   32                 -1.
    a34        44               -9.74   45               -10.1
    a34        46                 -3.   47                 3.3
    a34        48                .233   49                -.58
    a35        10                  1.   32                 -1.
    a35        44               -9.74   45                -9.9
    a35        46                 -3.   47                 66.
    a35        48                  1.   49                 -1.
    a36        44               -.493   45               -.165
    a36        46                  1.   C                .0924
    a37        32                  1.   44               10.03
    a37        45               10.03   47                -9.5
    a37        48                 -.5   49                  .5
    a37        73                 .64   74                 .35
    a37        C                -5.36
    a38        11                  1.   33                 -1.
    a38        50               -7.98   51               -8.58
    a38        52                 -3.   53                 14.
    a38        54                  1.   55                 -1.
    a39        23                  1.   33                 -1.
    a39        50               -8.87   51               -9.33
    a39        52                 -3.   53                 12.
    a39        54                  1.   55                 -1.
    a40        19                  1.   33                 -1.
    a40        50               -9.46   51               -9.45
    a40        52                 -3.   53                 3.5
    a40        54                .233   55               -.358
    a41        20                  1.   33                 -1.
    a41        50               -9.06   51                -9.2
    a41        52                 -3.   53                 3.5
    a41        54                .205   55               -.333
    a42        27                  1.   33                 -1.
    a42        50               -9.26   51               -9.13
    a42        52                 -3.   53                  6.
    a42        54                .318   55               -.509
    a43        10                  1.   33                 -1.
    a43        50               -9.77   51               -9.78
    a43        52                 -3.   53                 66.
    a43        54                  1.   55                 -1.
    a44        50               -.435   51               -.208
    a44        52                  1.   C                .0924
    a45        33                  1.   50                9.65
    a45        51                9.65   53                -9.5
    a45        54                 -.5   55                  .5
    a45        73                -.36   74                 .35
    a45        C                -5.08
    a46        11                  1.   36                 -1.
    a46        56               -7.99   57               -8.59
    a46        58                 -3.   59                 14.
    a46        60                  1.   61                 -1.
    a47        23                  1.   36                 -1.
    a47        56               -8.88   57               -9.34
    a47        58                 -3.   59                 12.
    a47        60                  1.   61                 -1.
    a48        19                  1.   36                 -1.
    a48        56               -9.47   57               -9.46
    a48        58                 -3.   59                 3.5
    a48        60                .233   61               -.358
    a49        20                  1.   36                 -1.
    a49        56               -9.07   57               -9.21
    a49        58                 -3.   59                 3.5
    a49        60                .205   61               -.333
    a50        27                  1.   36                 -1.
    a50        56               -9.27   57               -9.14
    a50        58                 -3.   59                  6.
    a50        60                .318   61               -.509
    a51        10                  1.   36                 -1.
    a51        56               -9.78   57               -9.79
    a51        58                 -3.   59                 66.
    a51        60                  1.   61                 -1.
    a52        56               -.426   57               -.204
    a52        58                  1.   C                .0924
    a53        36                  1.   56                9.05
    a53        57                9.05   59                -9.5
    a53        60                 -.5   61                  .5
    a53        73                -.36   74                -.65
    a53        C                -4.51
    a54        9                  -1.   26                  1.
    a55        9                   1.   37                 -1.
    a56        10                  1.   37                 -1.
    a57        37                  1.   C                -2.75
    a58        11                  1.   38                 -1.
    a58        63                -14.   64                 14.
    a59        12                  1.   38                 -1.
    a59        63                 -.8   64                  .8
    a60        38                  1.   63                  2.
    a60        64                 -3.   C                 -4.2
    a61        4                   1.   34                 -1.
    a62        3                   1.   34                 -1.
    a63        34                  1.   65                  1.
    a63        C                 -3.6
    a64        7                   1.   35                 -1.
    a64        62                10.1
    a65        8                   1.   35                 -1.
    a65        62               12.63
    a66        6                   1.   35                 -1.
    a66        62                8.05   66                  1.
    a67        5                   1.   35                 -1.
    a67        62                 6.9   65                  1.
    a68        29                  1.   35                 -1.
    a68        62                8.05
    a69        28                  1.   35                 -1.
    a69        62                 4.4
    a70        35                  1.   62               -10.1
    a70        C                  -2.
    a71        39                  1.   41               -.325
    a72        13                  1.   41              -4.153
    a73        10                  1.   41              -4.316
    a74        9                   1.   41              -3.814
    a75        25                  1.   41              -3.808
    a76        24                  1.   41               -4.44
    a77        40                 -1.   41                1.42
    a77        C                  .04
    a78        40                  1.
    a79        10                 -.5   13                 -.5
    a79        C                   3.
    a80        41                 -1.   C                   .4
    a81        41                  1.
    a82        42                 -1.   C                .0132
    a83        43                 -1.   C                  .01
RHS
 R             65               23.26   66                5.25
 R             67               26.32   68               21.05
 R             69               13.45   70                2.58
 R             71                 10.   72                 10.
BOUNDS
ENDATA
